c Reduced graph for GEOM90 generated by Cyril Grelier
p edge 90 441
e 1 2
e 1 15
e 1 27
e 1 32
e 1 35
e 1 48
e 1 49
e 1 61
e 1 63
e 1 73
e 1 77
e 1 79
e 1 82
e 2 29
e 2 32
e 2 35
e 2 41
e 2 48
e 2 49
e 2 61
e 2 63
e 2 66
e 2 77
e 2 79
e 3 8
e 3 31
e 3 34
e 3 53
e 3 56
e 3 57
e 3 58
e 3 65
e 3 72
e 3 88
e 4 6
e 4 44
e 4 47
e 4 62
e 4 64
e 4 75
e 4 83
e 4 85
e 4 87
e 4 90
e 5 7
e 5 17
e 5 25
e 5 36
e 5 45
e 5 46
e 5 78
e 5 80
e 5 81
e 5 86
e 6 44
e 6 47
e 6 62
e 6 64
e 6 75
e 6 83
e 6 85
e 6 87
e 7 36
e 7 45
e 7 60
e 7 78
e 7 80
e 7 81
e 7 84
e 7 86
e 8 19
e 8 34
e 8 53
e 8 56
e 8 57
e 8 58
e 8 65
e 8 72
e 9 10
e 9 11
e 9 28
e 9 54
e 9 59
e 9 74
e 9 76
e 9 89
e 10 19
e 10 28
e 10 58
e 10 59
e 10 74
e 10 89
e 11 28
e 11 54
e 11 59
e 11 74
e 11 76
e 11 89
e 12 18
e 12 19
e 12 37
e 12 39
e 12 54
e 12 58
e 13 14
e 13 22
e 13 45
e 13 80
e 13 81
e 14 22
e 14 45
e 14 80
e 14 81
e 15 27
e 15 32
e 15 33
e 15 42
e 15 43
e 15 55
e 15 62
e 15 63
e 15 69
e 15 70
e 15 73
e 15 82
e 16 23
e 16 24
e 16 26
e 16 31
e 16 40
e 16 41
e 16 50
e 16 52
e 16 53
e 16 67
e 16 71
e 16 77
e 17 18
e 17 25
e 17 36
e 17 37
e 17 43
e 17 55
e 17 70
e 17 78
e 17 86
e 18 37
e 18 39
e 18 54
e 18 60
e 18 76
e 18 78
e 18 84
e 19 28
e 19 58
e 19 74
e 19 89
e 20 42
e 20 43
e 20 46
e 20 51
e 20 64
e 20 68
e 20 85
e 21 23
e 21 26
e 21 30
e 21 50
e 21 52
e 21 67
e 22 45
e 22 80
e 22 81
e 23 24
e 23 26
e 23 31
e 23 40
e 23 41
e 23 50
e 23 52
e 23 66
e 23 67
e 23 71
e 23 77
e 24 26
e 24 31
e 24 40
e 24 41
e 24 48
e 24 50
e 24 52
e 24 53
e 24 61
e 24 77
e 25 36
e 25 42
e 25 43
e 25 46
e 25 51
e 25 55
e 25 68
e 25 70
e 25 86
e 26 29
e 26 41
e 26 50
e 26 52
e 26 66
e 26 67
e 27 32
e 27 48
e 27 61
e 27 69
e 27 73
e 27 77
e 27 82
e 27 88
e 28 54
e 28 59
e 28 74
e 28 89
e 29 35
e 29 41
e 29 48
e 29 66
e 29 79
e 30 50
e 30 52
e 30 67
e 30 71
e 31 34
e 31 40
e 31 41
e 31 50
e 31 53
e 31 56
e 31 57
e 31 65
e 31 71
e 31 72
e 31 77
e 32 33
e 32 35
e 32 48
e 32 49
e 32 61
e 32 63
e 32 69
e 32 73
e 32 79
e 32 82
e 33 38
e 33 42
e 33 43
e 33 49
e 33 51
e 33 55
e 33 62
e 33 63
e 33 69
e 33 70
e 33 73
e 33 85
e 34 40
e 34 53
e 34 56
e 34 57
e 34 58
e 34 65
e 34 72
e 35 48
e 35 49
e 35 61
e 35 66
e 35 79
e 36 45
e 36 78
e 36 80
e 36 81
e 36 86
e 37 39
e 37 54
e 37 60
e 37 78
e 37 84
e 38 44
e 38 49
e 38 62
e 38 63
e 38 85
e 39 54
e 39 58
e 40 41
e 40 50
e 40 52
e 40 53
e 40 56
e 40 57
e 40 65
e 40 71
e 40 72
e 40 77
e 41 48
e 41 50
e 41 52
e 41 61
e 41 66
e 41 77
e 41 79
e 42 43
e 42 46
e 42 51
e 42 55
e 42 62
e 42 64
e 42 69
e 42 70
e 42 85
e 43 46
e 43 51
e 43 55
e 43 64
e 43 68
e 43 69
e 43 70
e 44 47
e 44 49
e 44 62
e 44 63
e 44 75
e 44 83
e 44 85
e 44 87
e 44 90
e 45 78
e 45 80
e 45 81
e 45 86
e 46 51
e 46 64
e 46 68
e 46 70
e 47 75
e 47 83
e 47 87
e 47 90
e 48 49
e 48 61
e 48 66
e 48 77
e 48 79
e 49 61
e 49 62
e 49 63
e 49 69
e 49 79
e 50 52
e 50 67
e 50 71
e 50 77
e 51 55
e 51 62
e 51 64
e 51 68
e 51 69
e 51 70
e 51 85
e 52 66
e 52 67
e 52 71
e 53 56
e 53 57
e 53 65
e 53 71
e 53 72
e 54 59
e 54 60
e 54 74
e 54 76
e 54 84
e 55 69
e 55 70
e 55 73
e 56 57
e 56 65
e 56 71
e 56 72
e 57 65
e 57 71
e 57 72
e 58 72
e 59 74
e 59 89
e 60 76
e 60 78
e 60 84
e 61 73
e 61 77
e 61 79
e 61 82
e 61 88
e 62 63
e 62 64
e 62 69
e 62 70
e 62 85
e 63 69
e 63 73
e 63 85
e 64 68
e 64 70
e 64 85
e 65 72
e 66 79
e 67 71
e 69 70
e 69 73
e 69 85
e 72 88
e 73 82
e 73 88
e 74 76
e 74 89
e 75 83
e 75 85
e 75 87
e 75 90
e 76 84
e 77 79
e 77 82
e 77 88
e 78 80
e 78 84
e 78 86
e 80 81
e 80 86
e 81 86
e 82 88
e 83 87
e 83 90
e 85 87
